(set-info :source |printed by MathSAT|)
(declare-fun minus () Bool)
(declare-fun call_Sofar.flby () Bool)
(declare-fun plus.next () Bool)
(declare-fun call_Controller.flby.next () Int)
(declare-fun call_Property.acceptable () Bool)
(declare-fun call_Environment.ite () Bool)
(declare-fun call_Controller.flby () Int)
(declare-fun plus () Bool)
(declare-fun call_Property.ok () Bool)
(declare-fun call_Environment.ite2.next () Bool)
(declare-fun call_Environment.ite2 () Bool)
(declare-fun call_Controller.speed () Int)
(declare-fun call_Controller.minus () Bool)
(declare-fun call_Controller.minus.next () Bool)
(declare-fun call_Sofar.flby.next () Bool)
(declare-fun realistic () Bool)
(declare-fun _OK_.next () Bool)
(declare-fun param_diff () Int)
(declare-fun call_Sofar.Sofar () Bool)
(declare-fun call_Environment.flby () Bool)
(declare-fun call_Controller.plus.next () Bool)
(declare-fun call_Property.cpt.next () Int)
(declare-fun param_diff.next () Int)
(declare-fun speed () Int)
(declare-fun call_Environment.ok () Bool)
(declare-fun minus.next () Bool)
(declare-fun call_Property.flby () Int)
(declare-fun call_Controller.plus () Bool)
(declare-fun call_Property.ite.next () Int)
(declare-fun call_Environment.ite.next () Bool)
(declare-fun call_Property.ok.next () Bool)
(declare-fun call_Sofar.Sofar.next () Bool)
(declare-fun _OK_ () Bool)
(declare-fun call_Property.flby2.next () Bool)
(declare-fun speed.next () Int)
(declare-fun call_Property.flby2 () Bool)
(declare-fun call_Environment.flby2 () Bool)
(declare-fun call_Environment.ok.next () Bool)
(declare-fun realistic.next () Bool)
(declare-fun call_Property.flby.next () Int)
(declare-fun call_Property.cpt () Int)
(declare-fun call_Environment.flby.next () Bool)
(declare-fun call_Environment.flby2.next () Bool)
(declare-fun call_Controller.speed.next () Int)
(declare-fun call_Property.acceptable.next () Bool)
(define-fun .def_410 () Bool (<= speed.next 12))
(define-fun .def_409 () Bool (<= 8 speed.next))
(define-fun .def_411 () Bool (and .def_409 .def_410))
(define-fun .def_412 () Bool (= call_Property.acceptable.next .def_411))
(define-fun .def_407 () Bool (= call_Property.flby.next call_Property.cpt.next))
(define-fun .def_404 () Bool (= call_Property.flby2.next call_Property.ok.next))
(define-fun .def_402 () Bool (= call_Sofar.flby.next call_Sofar.Sofar.next))
(define-fun .def_400 () Bool (or call_Environment.flby2.next call_Environment.ite2.next))
(define-fun .def_398 () Bool (or call_Environment.flby.next call_Environment.ite.next))
(define-fun .def_392 () Bool (<= param_diff.next 4))
(define-fun .def_391 () Bool (<= (- 4) param_diff.next))
(define-fun .def_393 () Bool (and .def_391 .def_392))
(define-fun .def_394 () Bool (and call_Environment.ite.next .def_393))
(define-fun .def_395 () Bool (and call_Environment.ite2.next .def_394))
(define-fun .def_396 () Bool (= call_Environment.ok.next .def_395))
(define-fun .def_388 () Bool (<= 11 call_Controller.speed.next))
(define-fun .def_389 () Bool (= call_Controller.minus.next .def_388))
(define-fun .def_385 () Bool (<= call_Controller.speed.next 9))
(define-fun .def_386 () Bool (= call_Controller.plus.next .def_385))
(define-fun .def_383 () Bool (= call_Controller.flby.next call_Controller.speed.next))
(define-fun .def_379 () Bool (not call_Environment.flby.next))
(define-fun .def_376 () Bool (<= 1 param_diff.next))
(define-fun .def_378 () Bool (= .def_376 call_Environment.ite.next))
(define-fun .def_380 () Bool (or .def_378 .def_379))
(define-fun .def_374 () Bool (not call_Environment.flby2.next))
(define-fun .def_371 () Bool (<= param_diff.next (- 1)))
(define-fun .def_373 () Bool (= .def_371 call_Environment.ite2.next))
(define-fun .def_375 () Bool (or .def_373 .def_374))
(define-fun .def_381 () Bool (and .def_375 .def_380))
(define-fun .def_369 () Bool (= realistic.next call_Environment.ok.next))
(define-fun .def_366 () Bool (= minus.next call_Controller.minus.next))
(define-fun .def_362 () Bool (= plus.next call_Controller.plus.next))
(define-fun .def_358 () Bool (= speed.next call_Controller.speed.next))
(define-fun .def_353 () Bool (not call_Sofar.Sofar.next))
(define-fun .def_355 () Bool (or .def_353 call_Property.ok.next))
(define-fun .def_356 () Bool (= _OK_.next .def_355))
(define-fun .def_359 () Bool (and .def_356 .def_358))
(define-fun .def_363 () Bool (and .def_359 .def_362))
(define-fun .def_367 () Bool (and .def_363 .def_366))
(define-fun .def_370 () Bool (and .def_367 .def_369))
(define-fun .def_382 () Bool (and .def_370 .def_381))
(define-fun .def_384 () Bool (and .def_382 .def_383))
(define-fun .def_387 () Bool (and .def_384 .def_386))
(define-fun .def_390 () Bool (and .def_387 .def_389))
(define-fun .def_397 () Bool (and .def_390 .def_396))
(define-fun .def_399 () Bool (and .def_397 .def_398))
(define-fun .def_401 () Bool (and .def_399 .def_400))
(define-fun .def_403 () Bool (and .def_401 .def_402))
(define-fun .def_405 () Bool (and .def_403 .def_404))
(define-fun .def_408 () Bool (and .def_405 .def_407))
(define-fun .def_413 () Bool (and .def_408 .def_412))
(define-fun .def_305 () Bool (<= speed 12))
(define-fun .def_304 () Bool (<= 8 speed))
(define-fun .def_306 () Bool (and .def_304 .def_305))
(define-fun .def_307 () Bool (= call_Property.acceptable .def_306))
(define-fun .def_302 () Bool (= call_Property.flby call_Property.cpt))
(define-fun .def_299 () Bool (= call_Property.flby2 call_Property.ok))
(define-fun .def_297 () Bool (= call_Sofar.flby call_Sofar.Sofar))
(define-fun .def_295 () Bool (or call_Environment.flby2 call_Environment.ite2))
(define-fun .def_293 () Bool (or call_Environment.flby call_Environment.ite))
(define-fun .def_287 () Bool (<= param_diff 4))
(define-fun .def_286 () Bool (<= (- 4) param_diff))
(define-fun .def_288 () Bool (and .def_286 .def_287))
(define-fun .def_289 () Bool (and call_Environment.ite .def_288))
(define-fun .def_290 () Bool (and call_Environment.ite2 .def_289))
(define-fun .def_291 () Bool (= call_Environment.ok .def_290))
(define-fun .def_283 () Bool (<= 11 call_Controller.speed))
(define-fun .def_284 () Bool (= call_Controller.minus .def_283))
(define-fun .def_280 () Bool (<= call_Controller.speed 9))
(define-fun .def_281 () Bool (= call_Controller.plus .def_280))
(define-fun .def_278 () Bool (= call_Controller.flby call_Controller.speed))
(define-fun .def_274 () Bool (not call_Environment.flby))
(define-fun .def_271 () Bool (<= 1 param_diff))
(define-fun .def_273 () Bool (= .def_271 call_Environment.ite))
(define-fun .def_275 () Bool (or .def_273 .def_274))
(define-fun .def_267 () Bool (<= param_diff (- 1)))
(define-fun .def_269 () Bool (= .def_267 call_Environment.ite2))
(define-fun .def_232 () Bool (not call_Environment.flby2))
(define-fun .def_270 () Bool (or .def_232 .def_269))
(define-fun .def_276 () Bool (and .def_270 .def_275))
(define-fun .def_264 () Bool (= realistic call_Environment.ok))
(define-fun .def_261 () Bool (= minus call_Controller.minus))
(define-fun .def_257 () Bool (= plus call_Controller.plus))
(define-fun .def_253 () Bool (= speed call_Controller.speed))
(define-fun .def_248 () Bool (not call_Sofar.Sofar))
(define-fun .def_250 () Bool (or .def_248 call_Property.ok))
(define-fun .def_251 () Bool (= _OK_ .def_250))
(define-fun .def_254 () Bool (and .def_251 .def_253))
(define-fun .def_258 () Bool (and .def_254 .def_257))
(define-fun .def_262 () Bool (and .def_258 .def_261))
(define-fun .def_265 () Bool (and .def_262 .def_264))
(define-fun .def_277 () Bool (and .def_265 .def_276))
(define-fun .def_279 () Bool (and .def_277 .def_278))
(define-fun .def_282 () Bool (and .def_279 .def_281))
(define-fun .def_285 () Bool (and .def_282 .def_284))
(define-fun .def_292 () Bool (and .def_285 .def_291))
(define-fun .def_294 () Bool (and .def_292 .def_293))
(define-fun .def_296 () Bool (and .def_294 .def_295))
(define-fun .def_298 () Bool (and .def_296 .def_297))
(define-fun .def_300 () Bool (and .def_298 .def_299))
(define-fun .def_303 () Bool (and .def_300 .def_302))
(define-fun .def_308 () Bool (and .def_303 .def_307))
(define-fun .def_414 () Bool (and .def_308 .def_413))
(define-fun .def_347 () Bool (<= call_Property.cpt 7))
(define-fun .def_349 () Bool (= .def_347 call_Property.flby2.next))
(define-fun .def_345 () Bool (= call_Property.ite.next call_Property.flby.next))
(define-fun .def_341 () Bool (not call_Property.acceptable.next))
(define-fun .def_340 () Bool (= call_Property.ite.next 0))
(define-fun .def_342 () Bool (or .def_340 .def_341))
(define-fun .def_334 () Int (* (- 1) call_Property.ite.next))
(define-fun .def_335 () Int (+ call_Property.cpt .def_334))
(define-fun .def_336 () Bool (= .def_335 (- 1)))
(define-fun .def_338 () Bool (or .def_336 call_Property.acceptable.next))
(define-fun .def_326 () Bool (<= 16 speed.next))
(define-fun .def_327 () Bool (not .def_326))
(define-fun .def_323 () Bool (<= 0 speed.next))
(define-fun .def_325 () Bool (and .def_323 realistic.next))
(define-fun .def_328 () Bool (and .def_325 .def_327))
(define-fun .def_329 () Bool (or call_Sofar.Sofar .def_328))
(define-fun .def_331 () Bool (= .def_329 call_Sofar.flby.next))
(define-fun .def_320 () Bool (= minus call_Environment.flby2.next))
(define-fun .def_317 () Bool (= plus call_Environment.flby.next))
(define-fun .def_311 () Int (* (- 1) call_Controller.flby.next))
(define-fun .def_313 () Int (+ .def_311 param_diff.next))
(define-fun .def_314 () Int (+ call_Controller.speed .def_313))
(define-fun .def_315 () Bool (= .def_314 0))
(define-fun .def_318 () Bool (and .def_315 .def_317))
(define-fun .def_321 () Bool (and .def_318 .def_320))
(define-fun .def_332 () Bool (and .def_321 .def_331))
(define-fun .def_339 () Bool (and .def_332 .def_338))
(define-fun .def_343 () Bool (and .def_339 .def_342))
(define-fun .def_346 () Bool (and .def_343 .def_345))
(define-fun .def_350 () Bool (and .def_346 .def_349))
(define-fun .def_415 () Bool (and .def_350 .def_414))
(assert .def_415)
